results_rootrelaxation/bin018_050_022.srr.sol
solution status: optimal solution found
objective value:                                    0
_var351_                            0.130511895802215 	(obj:0)
_var1176_                           0.195023215533595 	(obj:0)
_var2089_                          0.0896957508885476 	(obj:0)
_var2714_                           0.173036903627488 	(obj:0)
_var2722_                         0.00758332700836901 	(obj:0)
_var2725_                          0.0850263134381075 	(obj:0)
_var2729_                           0.296874177945308 	(obj:0)
_var2733_                           0.287422234109283 	(obj:0)
_var2744_                           0.369626449071347 	(obj:0)
_var2755_                           0.124112867271814 	(obj:0)
_var2762_                           0.121193190960861 	(obj:0)
_var2763_                          0.0975182674562649 	(obj:0)
_var2766_                           0.261668194846845 	(obj:0)
_var2777_                           0.394627381424394 	(obj:0)
_var2778_                           0.193544847064862 	(obj:0)
_var2783_                           0.188122827244494 	(obj:0)
_var2784_                           0.157873187953873 	(obj:0)
_var2786_                           0.128748418649287 	(obj:0)
_var2789_                         0.00989089540164814 	(obj:0)
_var2790_                            0.24594274114082 	(obj:0)
_var2791_                          0.0117499073040568 	(obj:0)
_var2793_                           0.469348812213591 	(obj:0)
_var2794_                          0.0713653346452603 	(obj:0)
_var2796_                          0.0941843907593848 	(obj:0)
_var2797_                          0.0178111613883297 	(obj:0)
_var2798_                         0.00385169907072003 	(obj:0)
_var2799_                          0.0587655521776727 	(obj:0)
_var2802_                           0.108479975590446 	(obj:0)
_var2803_                           0.151591840712833 	(obj:0)
_var2804_                          0.0333391088047824 	(obj:0)
_var2807_                          0.0745099184994106 	(obj:0)
_var2809_                           0.281021089715278 	(obj:0)
_var2811_                            0.11001687892358 	(obj:0)
_var2813_                           0.119695075791538 	(obj:0)
_var2815_                           0.185996255579383 	(obj:0)
_var2819_                           0.128089953920733 	(obj:0)
_var2822_                           0.236094580267392 	(obj:0)
_var2823_                           0.241987709385923 	(obj:0)
_var2826_                           0.343170682267646 	(obj:0)
_var2828_                          0.0507703289872675 	(obj:0)
_var2829_                          0.0526465813403794 	(obj:0)
_var2831_                           0.024914091021239 	(obj:0)
_var2832_                           0.145415401660398 	(obj:0)
_var2835_                          0.0407030063731133 	(obj:0)
_var2836_                           0.164208551490029 	(obj:0)
_var2838_                          0.0341205284207734 	(obj:0)
_var2839_                           0.272569896240903 	(obj:0)
_var2842_                          0.0380753602499031 	(obj:0)
_var2844_                           0.067639236032499 	(obj:0)
_var2846_                           0.134098683549626 	(obj:0)
_var2847_                           0.032269209995139 	(obj:0)
_var2848_                          0.0901419233015364 	(obj:0)
_var2849_                          0.0281636589359753 	(obj:0)
_var2850_                          0.0239646786257993 	(obj:0)
_var2852_                           0.226810417976429 	(obj:0)
_var2853_                           0.151001726685605 	(obj:0)
_var2854_                           0.145111964637562 	(obj:0)
_var2855_                          0.0969210993053105 	(obj:0)
_var2857_                            0.17926058480485 	(obj:0)
_var2858_                          0.0540300952417404 	(obj:0)
_var2859_                           0.394768177409886 	(obj:0)
_var2860_                            0.14668957096373 	(obj:0)
_var2862_                           0.160088882940664 	(obj:0)
_var2866_                          0.0424754762145656 	(obj:0)
_var2868_                          0.0265503569665096 	(obj:0)
_var2875_                            0.16975907621378 	(obj:0)
_var2876_                           0.234516108535647 	(obj:0)
_var2878_                           0.111368169779027 	(obj:0)
_var2881_                           0.187458948386633 	(obj:0)
_var2883_                          0.0256908166242781 	(obj:0)
_var2888_                           0.242961988632574 	(obj:0)
_var2889_                           0.285315792294014 	(obj:0)
_var2890_                           0.318763832159524 	(obj:0)
_var2891_                           0.078085738358302 	(obj:0)
_var2893_                         0.00830463684911712 	(obj:0)
_var2894_                          0.0493981943216319 	(obj:0)
_var2896_                          0.0433825091263302 	(obj:0)
_var2897_                           0.146336971983245 	(obj:0)
_var2901_                          0.0969198264969369 	(obj:0)
_var2902_                           0.115924076547245 	(obj:0)
_var2903_                          0.0389877995861613 	(obj:0)
_var2904_                          0.0115825118207966 	(obj:0)
_var2906_                           0.184834890090878 	(obj:0)
_var2907_                           0.117725830172632 	(obj:0)
_var2908_                          0.0364071689995213 	(obj:0)
_var2909_                          0.0993782642995095 	(obj:0)
_var2910_                          0.0874475809508638 	(obj:0)
_var2915_                          0.0605809144937716 	(obj:0)
_var2916_                           0.156398077019412 	(obj:0)
_var2917_                           0.162843692838539 	(obj:0)
_var2918_                           0.220652378465123 	(obj:0)
_var2919_                         0.00743667385164128 	(obj:0)
_var2920_                          0.0236733630867178 	(obj:0)
_var2921_                          0.0628248260946876 	(obj:0)
_var2922_                          0.0076400004659737 	(obj:0)
_var2923_                          0.0369474941139472 	(obj:0)
_var2924_                          0.0181674400604107 	(obj:0)
_var2925_                          0.0156225522535136 	(obj:0)
_var2927_                          0.0301150131669313 	(obj:0)
_var2928_                            0.10470212200969 	(obj:0)
_var2929_                           0.143909387442229 	(obj:0)
_var2930_                          0.0900302757148382 	(obj:0)
_var2934_                          0.0821766683366533 	(obj:0)
_var2935_                          0.0393874896327556 	(obj:0)
_var2937_                          0.0818742040888145 	(obj:0)
_var2938_                           0.184891250854405 	(obj:0)
_var2939_                            0.22702427742484 	(obj:0)
_var2940_                          0.0652818288909801 	(obj:0)
_var2941_                         0.00963583619845056 	(obj:0)
_var2943_                           0.186448363722591 	(obj:0)
_var2945_                          0.0369211665887562 	(obj:0)
_var2948_                          0.0360024197904745 	(obj:0)
_var2949_                           0.193057420479989 	(obj:0)
_var2950_                           0.240240858983666 	(obj:0)
_var2952_                          0.0471751783492477 	(obj:0)
_var2953_                           0.220052795107045 	(obj:0)
_var2955_                          0.0688395544586503 	(obj:0)
_var2957_                           0.130198953371636 	(obj:0)
_var2958_                          0.0270425849006879 	(obj:0)
_var2959_                           0.196321756934295 	(obj:0)
_var2963_                           0.076891956911914 	(obj:0)
_var2966_                          0.0253320668291796 	(obj:0)
_var2968_                           0.162334403096985 	(obj:0)
_var2969_                           0.116685425480042 	(obj:0)
_var2970_                           0.101036925267501 	(obj:0)
_var2971_                           0.089816721209435 	(obj:0)
_var2972_                          0.0464016075524542 	(obj:0)
_var2974_                          0.0729783685047036 	(obj:0)
_var2977_                          0.0762470713592409 	(obj:0)
_var2979_                           0.038097174133268 	(obj:0)
_var2980_                          0.0417444612107034 	(obj:0)
_var2982_                          0.0677440472000655 	(obj:0)
_var2983_                          0.0757195407587203 	(obj:0)
_var2984_                          0.0761014428842445 	(obj:0)
_var2985_                          0.0922034939665546 	(obj:0)
_var2986_                          0.0929006713427201 	(obj:0)
_var2987_                         0.00463879647217522 	(obj:0)
_var2989_                          0.0620871529056515 	(obj:0)
_var2991_                          0.0160252336594815 	(obj:0)
_var2993_                          0.0914988824445746 	(obj:0)
_var2994_                           0.086101142514539 	(obj:0)
_var3000_                           0.090509241544784 	(obj:0)
_var3002_                          0.0688484336759484 	(obj:0)
_var3004_                          0.0130722084498253 	(obj:0)
_var3005_                           0.052839065616174 	(obj:0)
_var3006_                          0.0115928886265415 	(obj:0)
_var3007_                         0.00722575858838256 	(obj:0)
_var3010_                          0.0268118441455594 	(obj:0)
_var3014_                         0.00407166297193255 	(obj:0)
_var3015_                          0.0797184082376663 	(obj:0)
_var3021_                           0.061497145246721 	(obj:0)
_var3025_                          0.0440367025434938 	(obj:0)
