results_rootrelaxation/bin018_050_022.srr.log
SCIP version 8.0.3.5 [precision: 8 byte] [memory: block] [mode: optimized] [LP solver: Soplex 6.0.1.3] [GitHash: 438792519e]
Copyright (c) 2002-2023 Zuse Institute Berlin (ZIB)

External libraries: 
  Readline 8.1         GNU library for command line editing (gnu.org/s/readline)
  Soplex 6.0.1.3       Linear Programming Solver developed at Zuse Institute Berlin (soplex.zib.de) [GitHash: 713be0fe]
  CppAD 20180000.0     Algorithmic Differentiation of C++ algorithms developed by B. Bell (github.com/coin-or/CppAD)
  ZLIB 1.2.11          General purpose compression library by J. Gailly and M. Adler (zlib.net)
  bliss 0.77           Computing Graph Automorphism Groups by T. Junttila and P. Kaski (www.tcs.hut.fi/Software/bliss/)

user parameter file <scip.set> not found - using default parameters

srr/relaxation = TRUE

read problem <instances/bin018_050_022.srr>
============

Original problem: 
original problem has 0 variables (0 bin, 0 int, 0 impl, 0 cont) and 170 constraints

presolving:
presolving (1 rounds: 1 fast, 1 medium, 1 exhaustive):
 0 deleted vars, 0 deleted constraints, 0 added constraints, 0 tightened bounds, 0 added holes, 0 changed sides, 0 changed coefficients
 0 implications, 0 cliques
presolved problem has 0 variables (0 bin, 0 int, 0 impl, 0 cont) and 170 constraints
    170 constraints of type <linear>
Presolving Time: 0.00

 time | node  | left  |LP iter|LP it/n|mem/heur|mdpt |vars |cons |rows |cuts |sepa|confs|strbr|  dualbound   | primalbound  |  gap   | compl. 
  0.0s|     1 |     0 |     1 |     - |   922k |   0 |   1 | 170 | 170 |   0 |  0 |   0 |   0 |      --      |      --      |    Inf | unknown
  0.2s|     1 |     0 |  1484 |     - |  7216k |   0 |1615 | 170 | 170 |   0 |  0 |   0 |   0 |      --      |      --      |    Inf | unknown
r 0.8s|     1 |     0 |  6816 |     - |simplero|   0 |2703 | 170 | 170 |   0 |  0 |   0 |   0 |      --      | 3.379381e+01 |    Inf | unknown
r 0.8s|     1 |     0 |  6921 |     - |simplero|   0 |2720 | 170 | 170 |   0 |  0 |   0 |   0 |      --      | 3.221645e+01 |    Inf | unknown
r 0.8s|     1 |     0 |  7021 |     - |simplero|   0 |2737 | 170 | 170 |   0 |  0 |   0 |   0 |      --      | 3.119717e+01 |    Inf | unknown
r 0.9s|     1 |     0 |  7179 |     - |simplero|   0 |2754 | 170 | 170 |   0 |  0 |   0 |   0 |      --      | 2.904087e+01 |    Inf | unknown
r 0.9s|     1 |     0 |  7369 |     - |simplero|   0 |2771 | 170 | 170 |   0 |  0 |   0 |   0 |      --      | 2.612628e+01 |    Inf | unknown
r 0.9s|     1 |     0 |  7550 |     - |simplero|   0 |2788 | 170 | 170 |   0 |  0 |   0 |   0 |      --      | 2.342740e+01 |    Inf | unknown
r 0.9s|     1 |     0 |  7662 |     - |simplero|   0 |2805 | 170 | 170 |   0 |  0 |   0 |   0 |      --      | 2.153725e+01 |    Inf | unknown
r 0.9s|     1 |     0 |  7783 |     - |simplero|   0 |2805 | 170 | 170 |   0 |  0 |   0 |   0 |      --      | 2.049921e+01 |    Inf | unknown
r 1.0s|     1 |     0 |  7797 |     - |simplero|   0 |2805 | 170 | 170 |   0 |  0 |   0 |   0 |      --      | 2.048561e+01 |    Inf | unknown
r 1.0s|     1 |     0 |  7802 |     - |simplero|   0 |2805 | 170 | 170 |   0 |  0 |   0 |   0 |      --      | 2.048490e+01 |    Inf | unknown
r 1.0s|     1 |     0 |  7966 |     - |simplero|   0 |2822 | 170 | 170 |   0 |  0 |   0 |   0 |      --      | 1.866929e+01 |    Inf | unknown
r 1.0s|     1 |     0 |  8003 |     - |simplero|   0 |2822 | 170 | 170 |   0 |  0 |   0 |   0 |      --      | 1.848910e+01 |    Inf | unknown
r 1.0s|     1 |     0 |  8114 |     - |simplero|   0 |2839 | 170 | 170 |   0 |  0 |   0 |   0 |      --      | 1.632404e+01 |    Inf | unknown
 time | node  | left  |LP iter|LP it/n|mem/heur|mdpt |vars |cons |rows |cuts |sepa|confs|strbr|  dualbound   | primalbound  |  gap   | compl. 
r 1.0s|     1 |     0 |  8207 |     - |simplero|   0 |2839 | 170 | 170 |   0 |  0 |   0 |   0 |      --      | 1.551710e+01 |    Inf | unknown
r 1.0s|     1 |     0 |  8226 |     - |simplero|   0 |2839 | 170 | 170 |   0 |  0 |   0 |   0 |      --      | 1.546975e+01 |    Inf | unknown
r 1.0s|     1 |     0 |  8232 |     - |simplero|   0 |2839 | 170 | 170 |   0 |  0 |   0 |   0 |      --      | 1.546887e+01 |    Inf | unknown
r 1.0s|     1 |     0 |  8424 |     - |simplero|   0 |2856 | 170 | 170 |   0 |  0 |   0 |   0 |      --      | 1.256454e+01 |    Inf | unknown
r 1.0s|     1 |     0 |  8480 |     - |simplero|   0 |2856 | 170 | 170 |   0 |  0 |   0 |   0 |      --      | 1.247048e+01 |    Inf | unknown
r 1.0s|     1 |     0 |  8490 |     - |simplero|   0 |2856 | 170 | 170 |   0 |  0 |   0 |   0 |      --      | 1.246751e+01 |    Inf | unknown
r 1.1s|     1 |     0 |  8635 |     - |simplero|   0 |2873 | 170 | 170 |   0 |  0 |   0 |   0 |      --      | 1.087614e+01 |    Inf | unknown
r 1.1s|     1 |     0 |  8719 |     - |simplero|   0 |2873 | 170 | 170 |   0 |  0 |   0 |   0 |      --      | 1.034732e+01 |    Inf | unknown
r 1.1s|     1 |     0 |  8746 |     - |simplero|   0 |2873 | 170 | 170 |   0 |  0 |   0 |   0 |      --      | 1.030395e+01 |    Inf | unknown
r 1.1s|     1 |     0 |  8747 |     - |simplero|   0 |2873 | 170 | 170 |   0 |  0 |   0 |   0 |      --      | 1.030364e+01 |    Inf | unknown
r 1.1s|     1 |     0 |  8854 |     - |simplero|   0 |2890 | 170 | 170 |   0 |  0 |   0 |   0 |      --      | 8.936751e+00 |    Inf | unknown
r 1.1s|     1 |     0 |  8877 |     - |simplero|   0 |2890 | 170 | 170 |   0 |  0 |   0 |   0 |      --      | 8.904542e+00 |    Inf | unknown
r 1.1s|     1 |     0 |  8888 |     - |simplero|   0 |2890 | 170 | 170 |   0 |  0 |   0 |   0 |      --      | 8.900652e+00 |    Inf | unknown
r 1.1s|     1 |     0 |  8890 |     - |simplero|   0 |2890 | 170 | 170 |   0 |  0 |   0 |   0 |      --      | 8.900498e+00 |    Inf | unknown
r 1.1s|     1 |     0 |  9035 |     - |simplero|   0 |2907 | 170 | 170 |   0 |  0 |   0 |   0 |      --      | 7.040888e+00 |    Inf | unknown
 time | node  | left  |LP iter|LP it/n|mem/heur|mdpt |vars |cons |rows |cuts |sepa|confs|strbr|  dualbound   | primalbound  |  gap   | compl. 
r 1.1s|     1 |     0 |  9107 |     - |simplero|   0 |2907 | 170 | 170 |   0 |  0 |   0 |   0 |      --      | 6.558262e+00 |    Inf | unknown
r 1.1s|     1 |     0 |  9130 |     - |simplero|   0 |2907 | 170 | 170 |   0 |  0 |   0 |   0 |      --      | 6.510597e+00 |    Inf | unknown
r 1.2s|     1 |     0 |  9238 |     - |simplero|   0 |2924 | 170 | 170 |   0 |  0 |   0 |   0 |      --      | 5.389720e+00 |    Inf | unknown
r 1.2s|     1 |     0 |  9287 |     - |simplero|   0 |2924 | 170 | 170 |   0 |  0 |   0 |   0 |      --      | 5.012222e+00 |    Inf | unknown
r 1.2s|     1 |     0 |  9308 |     - |simplero|   0 |2924 | 170 | 170 |   0 |  0 |   0 |   0 |      --      | 4.955796e+00 |    Inf | unknown
r 1.2s|     1 |     0 |  9309 |     - |simplero|   0 |2924 | 170 | 170 |   0 |  0 |   0 |   0 |      --      | 4.955606e+00 |    Inf | unknown
  1.2s|     1 |     0 |  9432 |     - |    14M |   0 |2941 | 170 | 170 |   0 |  0 |   0 |   0 |      --      | 4.955606e+00 |    Inf | unknown
r 1.2s|     1 |     0 |  9432 |     - |simplero|   0 |2941 | 170 | 170 |   0 |  0 |   0 |   0 |      --      | 3.377868e+00 |    Inf | unknown
r 1.2s|     1 |     0 |  9466 |     - |simplero|   0 |2941 | 170 | 170 |   0 |  0 |   0 |   0 |      --      | 3.224958e+00 |    Inf | unknown
r 1.2s|     1 |     0 |  9491 |     - |simplero|   0 |2941 | 170 | 170 |   0 |  0 |   0 |   0 |      --      | 3.194206e+00 |    Inf | unknown
r 1.2s|     1 |     0 |  9494 |     - |simplero|   0 |2941 | 170 | 170 |   0 |  0 |   0 |   0 |      --      | 3.193698e+00 |    Inf | unknown
r 1.2s|     1 |     0 |  9610 |     - |simplero|   0 |2958 | 170 | 170 |   0 |  0 |   0 |   0 |      --      | 2.164779e+00 |    Inf | unknown
r 1.2s|     1 |     0 |  9650 |     - |simplero|   0 |2958 | 170 | 170 |   0 |  0 |   0 |   0 |      --      | 2.004754e+00 |    Inf | unknown
r 1.2s|     1 |     0 |  9657 |     - |simplero|   0 |2958 | 170 | 170 |   0 |  0 |   0 |   0 |      --      | 1.999393e+00 |    Inf | unknown
r 1.2s|     1 |     0 |  9747 |     - |simplero|   0 |2975 | 170 | 170 |   0 |  0 |   0 |   0 |      --      | 1.268406e+00 |    Inf | unknown
 time | node  | left  |LP iter|LP it/n|mem/heur|mdpt |vars |cons |rows |cuts |sepa|confs|strbr|  dualbound   | primalbound  |  gap   | compl. 
r 1.3s|     1 |     0 |  9766 |     - |simplero|   0 |2975 | 170 | 170 |   0 |  0 |   0 |   0 |      --      | 1.252653e+00 |    Inf | unknown
r 1.3s|     1 |     0 |  9774 |     - |simplero|   0 |2975 | 170 | 170 |   0 |  0 |   0 |   0 |      --      | 1.244285e+00 |    Inf | unknown
r 1.3s|     1 |     0 |  9857 |     - |simplero|   0 |2992 | 170 | 170 |   0 |  0 |   0 |   0 |      --      | 5.598095e-01 |    Inf | unknown
r 1.3s|     1 |     0 |  9885 |     - |simplero|   0 |2992 | 170 | 170 |   0 |  0 |   0 |   0 |      --      | 4.759004e-01 |    Inf | unknown
r 1.3s|     1 |     0 |  9898 |     - |simplero|   0 |2992 | 170 | 170 |   0 |  0 |   0 |   0 |      --      | 4.685643e-01 |    Inf | unknown
r 1.3s|     1 |     0 |  9974 |     - |simplero|   0 |3009 | 170 | 170 |   0 |  0 |   0 |   0 |      --      | 2.064395e-01 |    Inf | unknown
r 1.3s|     1 |     0 |  9987 |     - |simplero|   0 |3009 | 170 | 170 |   0 |  0 |   0 |   0 |      --      | 1.951627e-01 |    Inf | unknown
r 1.3s|     1 |     0 |  9991 |     - |simplero|   0 |3009 | 170 | 170 |   0 |  0 |   0 |   0 |      --      | 1.945034e-01 |    Inf | unknown
r 1.3s|     1 |     0 | 10046 |     - |simplero|   0 |3026 | 170 | 170 |   0 |  0 |   0 |   0 |      --      | 0.000000e+00 |    Inf | unknown
  1.3s|     1 |     0 | 10046 |     - |    15M |   0 |3026 | 170 | 170 |   0 |  0 |   0 |   0 | 0.000000e+00 | 0.000000e+00 |   0.00%| unknown
  1.3s|     1 |     0 | 10046 |     - |    15M |   0 |3026 | 170 | 170 |   0 |  0 |   0 |   0 | 0.000000e+00 | 0.000000e+00 |   0.00%| unknown

SCIP Status        : problem is solved [optimal solution found]
Solving Time (sec) : 1.32
Solving Nodes      : 1
Primal Bound       : +0.00000000000000e+00 (51 solutions)
Dual Bound         : +0.00000000000000e+00
Gap                : 0.00 %

written transformed problem to file <results_rootrelaxation/bin018_050_022.srr.lp>
written transformed problem to file <results_rootrelaxation/bin018_050_022.srr.cip>

written solution information to file <results_rootrelaxation/bin018_050_022.srr.sol>



